10 10
32 3 138 9 40 11 19 534 91 123
161 4 117 31 3 91 100 1 2 490
82 1 1 525 14 63 180 48 85 1
52 1 281 1 1 158 1 144 227 134
210 19 1 17 98 154 339 67 94 1
8 2 3 1 591 4 295 1 94 1
31 135 64 2 3 515 8 2 239 1
63 515 1 59 1 1 1 111 1 247
343 37 393 1 1 1 56 2 165 1
18 283 1 354 248 2 1 90 2 1
